\ Model Bin
\ LP format - for model browsing. Use MPS format to capture full model detail.
Maximize
  min
Subject To
 R0: 59 open[0,0] <= 100
 R1: 59 open[0,1] <= 150
 R2: 59 open[0,2] <= 150
 R3: 59 open[0,3] <= 100
 R4: 51 open[1,0] <= 100
 R5: 51 open[1,1] <= 150
 R6: 51 open[1,2] <= 150
 R7: 51 open[1,3] <= 100
 R8: 24 open[2,0] <= 100
 R9: 24 open[2,1] <= 150
 R10: 24 open[2,2] <= 150
 R11: 24 open[2,3] <= 100
 R12: 23 open[3,0] <= 100
 R13: 23 open[3,1] <= 150
 R14: 23 open[3,2] <= 150
 R15: 23 open[3,3] <= 100
 R16: 21 open[4,0] <= 100
 R17: 21 open[4,1] <= 150
 R18: 21 open[4,2] <= 150
 R19: 21 open[4,3] <= 100
 R20: 14 open[5,0] <= 100
 R21: 14 open[5,1] <= 150
 R22: 14 open[5,2] <= 150
 R23: 14 open[5,3] <= 100
 R24: 12 open[6,0] <= 100
 R25: 12 open[6,1] <= 150
 R26: 12 open[6,2] <= 150
 R27: 12 open[6,3] <= 100
 R28: 43 open[7,0] <= 100
 R29: 43 open[7,1] <= 150
 R30: 43 open[7,2] <= 150
 R31: 43 open[7,3] <= 100
 R32: 52 open[8,0] <= 100
 R33: 52 open[8,1] <= 150
 R34: 52 open[8,2] <= 150
 R35: 52 open[8,3] <= 100
 R36: 16 open[9,0] <= 100
 R37: 16 open[9,1] <= 150
 R38: 16 open[9,2] <= 150
 R39: 16 open[9,3] <= 100
 R40: 1.5 open[0,0] + 1.5 open[1,0] + 2.5 open[2,0] + 3.5 open[3,0]
   + 1.5 open[4,0] + 1.5 open[5,0] + 2.5 open[6,0] + 1.5 open[7,0]
   + 2.5 open[8,0] + 2.5 open[9,0] <= 245
 R41: 1.5 open[0,1] + 1.5 open[1,1] + 2.5 open[2,1] + 3.5 open[3,1]
   + 1.5 open[4,1] + 1.5 open[5,1] + 2.5 open[6,1] + 1.5 open[7,1]
   + 2.5 open[8,1] + 2.5 open[9,1] <= 245
 R42: 1.5 open[0,2] + 1.5 open[1,2] + 2.5 open[2,2] + 3.5 open[3,2]
   + 1.5 open[4,2] + 1.5 open[5,2] + 2.5 open[6,2] + 1.5 open[7,2]
   + 2.5 open[8,2] + 2.5 open[9,2] <= 245
 R43: 1.5 open[0,3] + 1.5 open[1,3] + 2.5 open[2,3] + 3.5 open[3,3]
   + 1.5 open[4,3] + 1.5 open[5,3] + 2.5 open[6,3] + 1.5 open[7,3]
   + 2.5 open[8,3] + 2.5 open[9,3] <= 245
 R44: 0.0245833333333333 open[0,0] + 0.02125 open[1,0] + 0.02 open[2,0]
   + 0.02875 open[3,0] + 0.00875 open[4,0] + 0.00583333333333333 open[5,0]
   + 0.01 open[6,0] + 0.0179166666666667 open[7,0]
   + 0.0433333333333333 open[8,0] + 0.0133333333333333 open[9,0] - min
   >= 0
 R45: 0.0163888888888889 open[0,1] + 0.0141666666666667 open[1,1]
   + 0.0133333333333333 open[2,1] + 0.0191666666666667 open[3,1]
   + 0.00583333333333333 open[4,1] + 0.00388888888888889 open[5,1]
   + 0.00666666666666667 open[6,1] + 0.0119444444444444 open[7,1]
   + 0.0288888888888889 open[8,1] + 0.00888888888888889 open[9,1] - min
   >= 0
 R46: 0.0163888888888889 open[0,2] + 0.0141666666666667 open[1,2]
   + 0.0133333333333333 open[2,2] + 0.0191666666666667 open[3,2]
   + 0.00583333333333333 open[4,2] + 0.00388888888888889 open[5,2]
   + 0.00666666666666667 open[6,2] + 0.0119444444444444 open[7,2]
   + 0.0288888888888889 open[8,2] + 0.00888888888888889 open[9,2] - min
   >= 0
 R47: 0.0245833333333333 open[0,3] + 0.02125 open[1,3] + 0.02 open[2,3]
   + 0.02875 open[3,3] + 0.00875 open[4,3] + 0.00583333333333333 open[5,3]
   + 0.01 open[6,3] + 0.0179166666666667 open[7,3]
   + 0.0433333333333333 open[8,3] + 0.0133333333333333 open[9,3] - min
   >= 0
 R48: open[0,0] + open[0,1] + open[0,2] + open[0,3] = 1
 R49: open[1,0] + open[1,1] + open[1,2] + open[1,3] = 1
 R50: open[2,0] + open[2,1] + open[2,2] + open[2,3] = 1
 R51: open[3,0] + open[3,1] + open[3,2] + open[3,3] = 1
 R52: open[4,0] + open[4,1] + open[4,2] + open[4,3] = 1
 R53: open[5,0] + open[5,1] + open[5,2] + open[5,3] = 1
 R54: open[6,0] + open[6,1] + open[6,2] + open[6,3] = 1
 R55: open[7,0] + open[7,1] + open[7,2] + open[7,3] = 1
 R56: open[8,0] + open[8,1] + open[8,2] + open[8,3] = 1
 R57: open[9,0] + open[9,1] + open[9,2] + open[9,3] = 1
Bounds
Binaries
 open[0,0] open[0,1] open[0,2] open[0,3] open[1,0] open[1,1] open[1,2]
 open[1,3] open[2,0] open[2,1] open[2,2] open[2,3] open[3,0] open[3,1]
 open[3,2] open[3,3] open[4,0] open[4,1] open[4,2] open[4,3] open[5,0]
 open[5,1] open[5,2] open[5,3] open[6,0] open[6,1] open[6,2] open[6,3]
 open[7,0] open[7,1] open[7,2] open[7,3] open[8,0] open[8,1] open[8,2]
 open[8,3] open[9,0] open[9,1] open[9,2] open[9,3]
End
